(declare-fun p_ack!1408 () (_ BitVec 64))
(declare-fun k_ack!1406 () (_ BitVec 32))
(declare-fun n_ack!1407 () (_ BitVec 32))
(assert (not (fp.gt ((_ to_fp 11 53) p_ack!1408) ((_ to_fp 11 53) #x3ff0000000000000))))
(assert (not (fp.lt ((_ to_fp 11 53) p_ack!1408) ((_ to_fp 11 53) #x0000000000000000))))
(assert (not (bvule n_ack!1407 k_ack!1406)))
(assert (not (fp.leq ((_ to_fp 11 53) p_ack!1408) ((_ to_fp 11 53) #x0000000000000000))))
(assert (fp.geq ((_ to_fp 11 53) p_ack!1408) ((_ to_fp 11 53) #x3ff0000000000000)))

(check-sat)
(exit)
